25231,14873,25500,18333,19879,7866,19210,26067,16478,2262,5796,2938,11682,5176,14424,21663,15638,2225,16461,10176,19333,21030,16163,16161,8968,4823,2428,2244,8694,14926,7748,16343,21138,20561,2787,20162,25169,5730,25336,18112,9819,11559,4804,14014,2573,2858,10052,24922,9185,5455,10316,12725,3700,15516,6961,1483,255,13693,21292,17860,2128,11686,13711,8078,10535,15190,14213,2657,25231